\ This file has been generated by DecisionOptimizationPythonModeler
\ ENCODING=ISO-8859-1
\Problem name: Diet

Minimize
 obj: 1.840 Buy({F1}) + 2.190 Buy({F2}) + 1.840 Buy({F3}) + 1.440 Buy({F4}) +
      2.290 Buy({F5}) + 0.770 Buy({F6}) + 1.290 Buy({F7}) + 0.600 Buy({F8}) +
      0.720 Buy({F9}) + x10
Subject To
 ct_food({1}): Buy({F1}) - Rgct_food({1}) = 0
 ct_food({2}): Buy({F2}) - Rgct_food({2}) = 0
 ct_food({3}): Buy({F3}) - Rgct_food({3}) = 0
 ct_food({4}): Buy({F4}) - Rgct_food({4}) = 0
 ct_food({5}): Buy({F5}) - Rgct_food({5}) = 0
 ct_food({6}): Buy({F6}) - Rgct_food({6}) = 0
 ct_food({7}): Buy({F7}) - Rgct_food({7}) = 0
 ct_food({8}): Buy({F8}) - Rgct_food({8}) = 0
 ct_food({9}): Buy({F9}) - Rgct_food({9}) = 0
 ct_nutrient({1}): 510 Buy({F1}) + 370 Buy({F2}) + 500 Buy({F3}) + 370
                  Buy({F4}) + 400 Buy({F5}) + 220 Buy({F6}) + 345 Buy({F7}) +
                  110 Buy({F8}) + 80 Buy({F9}) - Rgct_nutrient({1}) = 2000
 ct_nutrient({2}): 34 Buy({F1}) + 35 Buy({F2}) + 42 Buy({F3}) + 38 Buy({F4}) +
                  42 Buy({F5}) + 26 Buy({F6}) + 27 Buy({F7}) + 12 Buy({F8}) +
                  20 Buy({F9}) - Rgct_nutrient({2}) = 350
 ct_nutrient({3}): 28 Buy({F1}) + 24 Buy({F2}) + 25 Buy({F3}) + 14 Buy({F4}) +
                  31 Buy({F5}) + 3 Buy({F6}) + 15 Buy({F7}) + 9 Buy({F8}) +
                  Buy({F9}) - Rgct_nutrient({3}) = 55
 ct_nutrient({4}): 15 Buy({F1}) + 15 Buy({F2}) + 6 Buy({F3}) + 2 Buy({F4}) + 8
                  Buy({F5}) + 4 Buy({F7}) + 10 Buy({F8}) + 2 Buy({F9}) -
                  Rgct_nutrient({4}) = 100
 ct_nutrient({5}): 6 Buy({F1}) + 10 Buy({F2}) + 2 Buy({F3}) + 15 Buy({F5}) + 15
                  Buy({F6}) + 4 Buy({F8}) + 120 Buy({F9}) - Rgct_nutrient({5})
                  = 100
 ct_nutrient({6}): 30 Buy({F1}) + 20 Buy({F2}) + 25 Buy({F3}) + 15 Buy({F4}) +
                  15 Buy({F5}) + 20 Buy({F7}) + 30 Buy({F8}) + 2 Buy({F9}) -
                  Rgct_nutrient({6}) = 100
 ct_nutrient({7}): 20 Buy({F1}) + 20 Buy({F2}) + 20 Buy({F3}) + 10 Buy({F4}) +
                  8 Buy({F5}) + 2 Buy({F6}) + 15 Buy({F7}) + 2 Buy({F9}) -
                  Rgct_nutrient({7}) = 100

Bounds
0 <= Buy({F1})
0 <= Buy({F2})
0 <= Buy({F3})
0 <= Buy({F4})
0 <= Buy({F5})
0 <= Buy({F6})
0 <= Buy({F7})
0 <= Buy({F8})
0 <= Buy({F9})
     x10 = 0
0 <= Rgct_food({1}) <= 10
0 <= Rgct_food({2}) <= 10
0 <= Rgct_food({3}) <= 10
0 <= Rgct_food({4}) <= 10
0 <= Rgct_food({5}) <= 10
0 <= Rgct_food({6}) <= 10
0 <= Rgct_food({7}) <= 10
0 <= Rgct_food({8}) <= 10
0 <= Rgct_food({9}) <= 10
0 <= Rgct_nutrient({1}) <= 7999
0 <= Rgct_nutrient({2}) <= 25
0 <= Rgct_nutrient({3}) <= 9944
0 <= Rgct_nutrient({4}) <= 9899
0 <= Rgct_nutrient({5}) <= 9899
0 <= Rgct_nutrient({6}) <= 9899
0 <= Rgct_nutrient({7}) <= 9899
End
